# Solution for model r5_t9_m0_9
# Finished Task: 3 / 9
# Makespan: 383.0, Total Distance: 91.0, Total Time: 0.0039
# R O S F
0 0 7 0.0 0.0
1 1 10 0.0 0.0
2 2 11 0.0 0.0
3 3 -1 0.0 0.0
4 4 -1 0.0 0.0
5 -1 -1 -1.0 -1.0
6 -1 -1 -1.0 -1.0
7 0 -1 351.0 381.0
8 -1 -1 -1.0 -1.0
9 -1 -1 -1.0 -1.0
10 1 -1 323.0 351.0
11 2 -1 351.0 383.0
12 -1 -1 -1.0 -1.0
13 -1 -1 -1.0 -1.0
